p cnf 521 1767
c p weight -207 1 0
c p weight 207 -1 0
c p weight 211 6.12323399573676603586882014729198302312846062338790031898128063403419218957424163818359375E-17 0
c p weight -211 1 0
c p weight 212 1 0
c p weight -212 1 0
c p weight -209 1 0
c p weight 209 -1 0
c p weight -213 1 0
c p weight 213 -1 0
c p weight -215 1 0
c p weight 215 -1 0
c p weight -218 1 0
c p weight 218 -1 0
c p weight -221 1 0
c p weight 221 -1 0
c p weight -224 1 0
c p weight 224 -1 0
c p weight -227 1 0
c p weight 227 -1 0
c p weight -230 1 0
c p weight 230 -1 0
c p weight -233 1 0
c p weight 233 -1 0
c p weight -236 1 0
c p weight 236 -1 0
c p weight -239 1 0
c p weight 239 -1 0
c p weight -242 1 0
c p weight 242 -1 0
c p weight -245 1 0
c p weight 245 -1 0
c p weight -248 1 0
c p weight 248 -1 0
c p weight -251 1 0
c p weight 251 -1 0
c p weight -254 1 0
c p weight 254 -1 0
c p weight -257 1 0
c p weight 257 -1 0
c p weight -260 1 0
c p weight 260 -1 0
c p weight -263 1 0
c p weight 263 -1 0
c p weight -266 1 0
c p weight 266 -1 0
c p weight -269 1 0
c p weight 269 -1 0
c p weight -272 1 0
c p weight 272 -1 0
c p weight -275 1 0
c p weight 275 -1 0
c p weight -278 1 0
c p weight 278 -1 0
c p weight -281 1 0
c p weight 281 -1 0
c p weight -284 1 0
c p weight 284 -1 0
c p weight -287 1 0
c p weight 287 -1 0
c p weight -290 1 0
c p weight 290 -1 0
c p weight -293 1 0
c p weight 293 -1 0
c p weight -296 1 0
c p weight 296 -1 0
c p weight -299 1 0
c p weight 299 -1 0
c p weight -302 1 0
c p weight 302 -1 0
c p weight -305 1 0
c p weight 305 -1 0
c p weight -308 1 0
c p weight 308 -1 0
c p weight -311 1 0
c p weight 311 -1 0
c p weight -314 1 0
c p weight 314 -1 0
c p weight -317 1 0
c p weight 317 -1 0
c p weight -320 1 0
c p weight 320 -1 0
c p weight -323 1 0
c p weight 323 -1 0
c p weight -326 1 0
c p weight 326 -1 0
c p weight -329 1 0
c p weight 329 -1 0
c p weight -332 1 0
c p weight 332 -1 0
c p weight -335 1 0
c p weight 335 -1 0
c p weight -338 1 0
c p weight 338 -1 0
c p weight -341 1 0
c p weight 341 -1 0
c p weight -344 1 0
c p weight 344 -1 0
c p weight -347 1 0
c p weight 347 -1 0
c p weight -350 1 0
c p weight 350 -1 0
c p weight -353 1 0
c p weight 353 -1 0
c p weight -356 1 0
c p weight 356 -1 0
c p weight -359 1 0
c p weight 359 -1 0
c p weight -362 1 0
c p weight 362 -1 0
c p weight -365 1 0
c p weight 365 -1 0
c p weight -368 1 0
c p weight 368 -1 0
c p weight -371 1 0
c p weight 371 -1 0
c p weight -374 1 0
c p weight 374 -1 0
c p weight -377 1 0
c p weight 377 -1 0
c p weight -380 1 0
c p weight 380 -1 0
c p weight -383 1 0
c p weight 383 -1 0
c p weight -386 1 0
c p weight 386 -1 0
c p weight -389 1 0
c p weight 389 -1 0
c p weight -392 1 0
c p weight 392 -1 0
c p weight -395 1 0
c p weight 395 -1 0
c p weight -398 1 0
c p weight 398 -1 0
c p weight -401 1 0
c p weight 401 -1 0
c p weight -404 1 0
c p weight 404 -1 0
c p weight -407 1 0
c p weight 407 -1 0
c p weight -410 1 0
c p weight 410 -1 0
c p weight -413 1 0
c p weight 413 -1 0
c p weight -416 1 0
c p weight 416 -1 0
c p weight -419 1 0
c p weight 419 -1 0
c p weight -422 1 0
c p weight 422 -1 0
c p weight -425 1 0
c p weight 425 -1 0
c p weight -428 1 0
c p weight 428 -1 0
c p weight -431 1 0
c p weight 431 -1 0
c p weight -434 1 0
c p weight 434 -1 0
c p weight -437 1 0
c p weight 437 -1 0
c p weight -440 1 0
c p weight 440 -1 0
c p weight -443 1 0
c p weight 443 -1 0
c p weight -446 1 0
c p weight 446 -1 0
c p weight -449 1 0
c p weight 449 -1 0
c p weight -452 1 0
c p weight 452 -1 0
c p weight -455 1 0
c p weight 455 -1 0
c p weight -458 1 0
c p weight 458 -1 0
c p weight -461 1 0
c p weight 461 -1 0
c p weight -464 1 0
c p weight 464 -1 0
c p weight -467 1 0
c p weight 467 -1 0
c p weight -470 1 0
c p weight 470 -1 0
c p weight -473 1 0
c p weight 473 -1 0
c p weight -476 1 0
c p weight 476 -1 0
c p weight -479 1 0
c p weight 479 -1 0
c p weight -482 1 0
c p weight 482 -1 0
c p weight -485 1 0
c p weight 485 -1 0
c p weight -488 1 0
c p weight 488 -1 0
c p weight -491 1 0
c p weight 491 -1 0
c p weight -494 1 0
c p weight 494 -1 0
c p weight -497 1 0
c p weight 497 -1 0
c p weight -500 1 0
c p weight 500 -1 0
c p weight -503 1 0
c p weight 503 -1 0
c p weight -506 1 0
c p weight 506 -1 0
c p weight -509 1 0
c p weight 509 -1 0
c p weight -512 1 0
c p weight 512 -1 0
c p weight -515 1 0
c p weight 515 -1 0
c p weight -518 1 0
c p weight 518 -1 0
c p weight 521 0.5 0
c p weight -521 1 0
521 0
-205 0
-203 0
-201 0
-199 0
-197 0
-195 0
-193 0
-191 0
-189 0
-187 0
-185 0
-183 0
-181 0
-179 0
-177 0
-175 0
-173 0
-171 0
-169 0
-167 0
-165 0
-163 0
-161 0
-159 0
-157 0
-155 0
-153 0
-151 0
-149 0
-147 0
-145 0
-143 0
-141 0
-139 0
-137 0
-135 0
-133 0
-131 0
-129 0
-127 0
-125 0
-123 0
-121 0
-119 0
-117 0
-115 0
-113 0
-111 0
-109 0
-107 0
-105 0
-103 0
-101 0
-99 0
-97 0
-95 0
-93 0
-91 0
-89 0
-87 0
-85 0
-83 0
-81 0
-79 0
-77 0
-75 0
-73 0
-71 0
-69 0
-67 0
-65 0
-63 0
-61 0
-59 0
-57 0
-55 0
-53 0
-51 0
-49 0
-47 0
-45 0
-43 0
-41 0
-39 0
-37 0
-35 0
-33 0
-31 0
-29 0
-27 0
-25 0
-23 0
-21 0
-19 0
-17 0
-15 0
-13 0
-11 0
-9 0
-7 0
-5 0
-3 0
-1 0
-207 205 0
-207 206 0
207 -205 -206 0
208 205 -206 0
208 -205 206 0
-208 205 206 0
-208 -205 -206 0
-209 210 0
-209 208 0
-209 -205 0
209 -210 205 -208 0
210 -205 208 0
-210 205 208 0
-211 208 0
210 -211 -205 0
-210 -211 205 0
210 211 205 -208 0
-210 211 -205 -208 0
-212 208 0
210 -212 205 0
-210 -212 -205 0
210 212 -205 -208 0
-210 212 205 -208 0
-213 210 0
-213 208 0
213 -210 -208 0
214 210 -208 0
214 -210 208 0
-214 210 208 0
-214 -210 -208 0
-215 210 0
-215 204 0
-215 203 -214 0
-215 -203 214 0
215 -210 203 214 -204 0
215 -210 -203 -214 -204 0
217 210 -203 0
217 -210 203 0
-217 210 203 0
-217 -210 -203 0
216 214 -204 0
216 -214 204 0
-216 214 204 0
-216 -214 -204 0
-218 217 0
-218 202 0
-218 201 -204 0
-218 -201 204 0
218 -217 201 204 -202 0
218 -217 -201 -204 -202 0
220 217 -201 0
220 -217 201 0
-220 217 201 0
-220 -217 -201 0
219 204 -202 0
219 -204 202 0
-219 204 202 0
-219 -204 -202 0
-221 220 0
-221 200 0
-221 199 -202 0
-221 -199 202 0
221 -220 199 202 -200 0
221 -220 -199 -202 -200 0
223 220 -199 0
223 -220 199 0
-223 220 199 0
-223 -220 -199 0
222 202 -200 0
222 -202 200 0
-222 202 200 0
-222 -202 -200 0
-224 223 0
-224 198 0
-224 197 -200 0
-224 -197 200 0
224 -223 197 200 -198 0
224 -223 -197 -200 -198 0
226 223 -197 0
226 -223 197 0
-226 223 197 0
-226 -223 -197 0
225 200 -198 0
225 -200 198 0
-225 200 198 0
-225 -200 -198 0
-227 226 0
-227 196 0
-227 195 -198 0
-227 -195 198 0
227 -226 195 198 -196 0
227 -226 -195 -198 -196 0
229 226 -195 0
229 -226 195 0
-229 226 195 0
-229 -226 -195 0
228 198 -196 0
228 -198 196 0
-228 198 196 0
-228 -198 -196 0
-230 229 0
-230 194 0
-230 193 -196 0
-230 -193 196 0
230 -229 193 196 -194 0
230 -229 -193 -196 -194 0
232 229 -193 0
232 -229 193 0
-232 229 193 0
-232 -229 -193 0
231 196 -194 0
231 -196 194 0
-231 196 194 0
-231 -196 -194 0
-233 232 0
-233 192 0
-233 191 -194 0
-233 -191 194 0
233 -232 191 194 -192 0
233 -232 -191 -194 -192 0
235 232 -191 0
235 -232 191 0
-235 232 191 0
-235 -232 -191 0
234 194 -192 0
234 -194 192 0
-234 194 192 0
-234 -194 -192 0
-236 235 0
-236 190 0
-236 189 -192 0
-236 -189 192 0
236 -235 189 192 -190 0
236 -235 -189 -192 -190 0
238 235 -189 0
238 -235 189 0
-238 235 189 0
-238 -235 -189 0
237 192 -190 0
237 -192 190 0
-237 192 190 0
-237 -192 -190 0
-239 238 0
-239 188 0
-239 187 -190 0
-239 -187 190 0
239 -238 187 190 -188 0
239 -238 -187 -190 -188 0
241 238 -187 0
241 -238 187 0
-241 238 187 0
-241 -238 -187 0
240 190 -188 0
240 -190 188 0
-240 190 188 0
-240 -190 -188 0
-242 241 0
-242 186 0
-242 185 -188 0
-242 -185 188 0
242 -241 185 188 -186 0
242 -241 -185 -188 -186 0
244 241 -185 0
244 -241 185 0
-244 241 185 0
-244 -241 -185 0
243 188 -186 0
243 -188 186 0
-243 188 186 0
-243 -188 -186 0
-245 244 0
-245 184 0
-245 183 -186 0
-245 -183 186 0
245 -244 183 186 -184 0
245 -244 -183 -186 -184 0
247 244 -183 0
247 -244 183 0
-247 244 183 0
-247 -244 -183 0
246 186 -184 0
246 -186 184 0
-246 186 184 0
-246 -186 -184 0
-248 247 0
-248 182 0
-248 181 -184 0
-248 -181 184 0
248 -247 181 184 -182 0
248 -247 -181 -184 -182 0
250 247 -181 0
250 -247 181 0
-250 247 181 0
-250 -247 -181 0
249 184 -182 0
249 -184 182 0
-249 184 182 0
-249 -184 -182 0
-251 250 0
-251 180 0
-251 179 -182 0
-251 -179 182 0
251 -250 179 182 -180 0
251 -250 -179 -182 -180 0
253 250 -179 0
253 -250 179 0
-253 250 179 0
-253 -250 -179 0
252 182 -180 0
252 -182 180 0
-252 182 180 0
-252 -182 -180 0
-254 253 0
-254 178 0
-254 177 -180 0
-254 -177 180 0
254 -253 177 180 -178 0
254 -253 -177 -180 -178 0
256 253 -177 0
256 -253 177 0
-256 253 177 0
-256 -253 -177 0
255 180 -178 0
255 -180 178 0
-255 180 178 0
-255 -180 -178 0
-257 256 0
-257 176 0
-257 175 -178 0
-257 -175 178 0
257 -256 175 178 -176 0
257 -256 -175 -178 -176 0
259 256 -175 0
259 -256 175 0
-259 256 175 0
-259 -256 -175 0
258 178 -176 0
258 -178 176 0
-258 178 176 0
-258 -178 -176 0
-260 259 0
-260 174 0
-260 173 -176 0
-260 -173 176 0
260 -259 173 176 -174 0
260 -259 -173 -176 -174 0
262 259 -173 0
262 -259 173 0
-262 259 173 0
-262 -259 -173 0
261 176 -174 0
261 -176 174 0
-261 176 174 0
-261 -176 -174 0
-263 262 0
-263 172 0
-263 171 -174 0
-263 -171 174 0
263 -262 171 174 -172 0
263 -262 -171 -174 -172 0
265 262 -171 0
265 -262 171 0
-265 262 171 0
-265 -262 -171 0
264 174 -172 0
264 -174 172 0
-264 174 172 0
-264 -174 -172 0
-266 265 0
-266 170 0
-266 169 -172 0
-266 -169 172 0
266 -265 169 172 -170 0
266 -265 -169 -172 -170 0
268 265 -169 0
268 -265 169 0
-268 265 169 0
-268 -265 -169 0
267 172 -170 0
267 -172 170 0
-267 172 170 0
-267 -172 -170 0
-269 268 0
-269 168 0
-269 167 -170 0
-269 -167 170 0
269 -268 167 170 -168 0
269 -268 -167 -170 -168 0
271 268 -167 0
271 -268 167 0
-271 268 167 0
-271 -268 -167 0
270 170 -168 0
270 -170 168 0
-270 170 168 0
-270 -170 -168 0
-272 271 0
-272 166 0
-272 165 -168 0
-272 -165 168 0
272 -271 165 168 -166 0
272 -271 -165 -168 -166 0
274 271 -165 0
274 -271 165 0
-274 271 165 0
-274 -271 -165 0
273 168 -166 0
273 -168 166 0
-273 168 166 0
-273 -168 -166 0
-275 274 0
-275 164 0
-275 163 -166 0
-275 -163 166 0
275 -274 163 166 -164 0
275 -274 -163 -166 -164 0
277 274 -163 0
277 -274 163 0
-277 274 163 0
-277 -274 -163 0
276 166 -164 0
276 -166 164 0
-276 166 164 0
-276 -166 -164 0
-278 277 0
-278 162 0
-278 161 -164 0
-278 -161 164 0
278 -277 161 164 -162 0
278 -277 -161 -164 -162 0
280 277 -161 0
280 -277 161 0
-280 277 161 0
-280 -277 -161 0
279 164 -162 0
279 -164 162 0
-279 164 162 0
-279 -164 -162 0
-281 280 0
-281 160 0
-281 159 -162 0
-281 -159 162 0
281 -280 159 162 -160 0
281 -280 -159 -162 -160 0
283 280 -159 0
283 -280 159 0
-283 280 159 0
-283 -280 -159 0
282 162 -160 0
282 -162 160 0
-282 162 160 0
-282 -162 -160 0
-284 283 0
-284 158 0
-284 157 -160 0
-284 -157 160 0
284 -283 157 160 -158 0
284 -283 -157 -160 -158 0
286 283 -157 0
286 -283 157 0
-286 283 157 0
-286 -283 -157 0
285 160 -158 0
285 -160 158 0
-285 160 158 0
-285 -160 -158 0
-287 286 0
-287 156 0
-287 155 -158 0
-287 -155 158 0
287 -286 155 158 -156 0
287 -286 -155 -158 -156 0
289 286 -155 0
289 -286 155 0
-289 286 155 0
-289 -286 -155 0
288 158 -156 0
288 -158 156 0
-288 158 156 0
-288 -158 -156 0
-290 289 0
-290 154 0
-290 153 -156 0
-290 -153 156 0
290 -289 153 156 -154 0
290 -289 -153 -156 -154 0
292 289 -153 0
292 -289 153 0
-292 289 153 0
-292 -289 -153 0
291 156 -154 0
291 -156 154 0
-291 156 154 0
-291 -156 -154 0
-293 292 0
-293 152 0
-293 151 -154 0
-293 -151 154 0
293 -292 151 154 -152 0
293 -292 -151 -154 -152 0
295 292 -151 0
295 -292 151 0
-295 292 151 0
-295 -292 -151 0
294 154 -152 0
294 -154 152 0
-294 154 152 0
-294 -154 -152 0
-296 295 0
-296 150 0
-296 149 -152 0
-296 -149 152 0
296 -295 149 152 -150 0
296 -295 -149 -152 -150 0
298 295 -149 0
298 -295 149 0
-298 295 149 0
-298 -295 -149 0
297 152 -150 0
297 -152 150 0
-297 152 150 0
-297 -152 -150 0
-299 298 0
-299 148 0
-299 147 -150 0
-299 -147 150 0
299 -298 147 150 -148 0
299 -298 -147 -150 -148 0
301 298 -147 0
301 -298 147 0
-301 298 147 0
-301 -298 -147 0
300 150 -148 0
300 -150 148 0
-300 150 148 0
-300 -150 -148 0
-302 301 0
-302 146 0
-302 145 -148 0
-302 -145 148 0
302 -301 145 148 -146 0
302 -301 -145 -148 -146 0
304 301 -145 0
304 -301 145 0
-304 301 145 0
-304 -301 -145 0
303 148 -146 0
303 -148 146 0
-303 148 146 0
-303 -148 -146 0
-305 304 0
-305 144 0
-305 143 -146 0
-305 -143 146 0
305 -304 143 146 -144 0
305 -304 -143 -146 -144 0
307 304 -143 0
307 -304 143 0
-307 304 143 0
-307 -304 -143 0
306 146 -144 0
306 -146 144 0
-306 146 144 0
-306 -146 -144 0
-308 307 0
-308 142 0
-308 141 -144 0
-308 -141 144 0
308 -307 141 144 -142 0
308 -307 -141 -144 -142 0
310 307 -141 0
310 -307 141 0
-310 307 141 0
-310 -307 -141 0
309 144 -142 0
309 -144 142 0
-309 144 142 0
-309 -144 -142 0
-311 310 0
-311 140 0
-311 139 -142 0
-311 -139 142 0
311 -310 139 142 -140 0
311 -310 -139 -142 -140 0
313 310 -139 0
313 -310 139 0
-313 310 139 0
-313 -310 -139 0
312 142 -140 0
312 -142 140 0
-312 142 140 0
-312 -142 -140 0
-314 313 0
-314 138 0
-314 137 -140 0
-314 -137 140 0
314 -313 137 140 -138 0
314 -313 -137 -140 -138 0
316 313 -137 0
316 -313 137 0
-316 313 137 0
-316 -313 -137 0
315 140 -138 0
315 -140 138 0
-315 140 138 0
-315 -140 -138 0
-317 316 0
-317 136 0
-317 135 -138 0
-317 -135 138 0
317 -316 135 138 -136 0
317 -316 -135 -138 -136 0
319 316 -135 0
319 -316 135 0
-319 316 135 0
-319 -316 -135 0
318 138 -136 0
318 -138 136 0
-318 138 136 0
-318 -138 -136 0
-320 319 0
-320 134 0
-320 133 -136 0
-320 -133 136 0
320 -319 133 136 -134 0
320 -319 -133 -136 -134 0
322 319 -133 0
322 -319 133 0
-322 319 133 0
-322 -319 -133 0
321 136 -134 0
321 -136 134 0
-321 136 134 0
-321 -136 -134 0
-323 322 0
-323 132 0
-323 131 -134 0
-323 -131 134 0
323 -322 131 134 -132 0
323 -322 -131 -134 -132 0
325 322 -131 0
325 -322 131 0
-325 322 131 0
-325 -322 -131 0
324 134 -132 0
324 -134 132 0
-324 134 132 0
-324 -134 -132 0
-326 325 0
-326 130 0
-326 129 -132 0
-326 -129 132 0
326 -325 129 132 -130 0
326 -325 -129 -132 -130 0
328 325 -129 0
328 -325 129 0
-328 325 129 0
-328 -325 -129 0
327 132 -130 0
327 -132 130 0
-327 132 130 0
-327 -132 -130 0
-329 328 0
-329 128 0
-329 127 -130 0
-329 -127 130 0
329 -328 127 130 -128 0
329 -328 -127 -130 -128 0
331 328 -127 0
331 -328 127 0
-331 328 127 0
-331 -328 -127 0
330 130 -128 0
330 -130 128 0
-330 130 128 0
-330 -130 -128 0
-332 331 0
-332 126 0
-332 125 -128 0
-332 -125 128 0
332 -331 125 128 -126 0
332 -331 -125 -128 -126 0
334 331 -125 0
334 -331 125 0
-334 331 125 0
-334 -331 -125 0
333 128 -126 0
333 -128 126 0
-333 128 126 0
-333 -128 -126 0
-335 334 0
-335 124 0
-335 123 -126 0
-335 -123 126 0
335 -334 123 126 -124 0
335 -334 -123 -126 -124 0
337 334 -123 0
337 -334 123 0
-337 334 123 0
-337 -334 -123 0
336 126 -124 0
336 -126 124 0
-336 126 124 0
-336 -126 -124 0
-338 337 0
-338 122 0
-338 121 -124 0
-338 -121 124 0
338 -337 121 124 -122 0
338 -337 -121 -124 -122 0
340 337 -121 0
340 -337 121 0
-340 337 121 0
-340 -337 -121 0
339 124 -122 0
339 -124 122 0
-339 124 122 0
-339 -124 -122 0
-341 340 0
-341 120 0
-341 119 -122 0
-341 -119 122 0
341 -340 119 122 -120 0
341 -340 -119 -122 -120 0
343 340 -119 0
343 -340 119 0
-343 340 119 0
-343 -340 -119 0
342 122 -120 0
342 -122 120 0
-342 122 120 0
-342 -122 -120 0
-344 343 0
-344 118 0
-344 117 -120 0
-344 -117 120 0
344 -343 117 120 -118 0
344 -343 -117 -120 -118 0
346 343 -117 0
346 -343 117 0
-346 343 117 0
-346 -343 -117 0
345 120 -118 0
345 -120 118 0
-345 120 118 0
-345 -120 -118 0
-347 346 0
-347 116 0
-347 115 -118 0
-347 -115 118 0
347 -346 115 118 -116 0
347 -346 -115 -118 -116 0
349 346 -115 0
349 -346 115 0
-349 346 115 0
-349 -346 -115 0
348 118 -116 0
348 -118 116 0
-348 118 116 0
-348 -118 -116 0
-350 349 0
-350 114 0
-350 113 -116 0
-350 -113 116 0
350 -349 113 116 -114 0
350 -349 -113 -116 -114 0
352 349 -113 0
352 -349 113 0
-352 349 113 0
-352 -349 -113 0
351 116 -114 0
351 -116 114 0
-351 116 114 0
-351 -116 -114 0
-353 352 0
-353 112 0
-353 111 -114 0
-353 -111 114 0
353 -352 111 114 -112 0
353 -352 -111 -114 -112 0
355 352 -111 0
355 -352 111 0
-355 352 111 0
-355 -352 -111 0
354 114 -112 0
354 -114 112 0
-354 114 112 0
-354 -114 -112 0
-356 355 0
-356 110 0
-356 109 -112 0
-356 -109 112 0
356 -355 109 112 -110 0
356 -355 -109 -112 -110 0
358 355 -109 0
358 -355 109 0
-358 355 109 0
-358 -355 -109 0
357 112 -110 0
357 -112 110 0
-357 112 110 0
-357 -112 -110 0
-359 358 0
-359 108 0
-359 107 -110 0
-359 -107 110 0
359 -358 107 110 -108 0
359 -358 -107 -110 -108 0
361 358 -107 0
361 -358 107 0
-361 358 107 0
-361 -358 -107 0
360 110 -108 0
360 -110 108 0
-360 110 108 0
-360 -110 -108 0
-362 361 0
-362 106 0
-362 105 -108 0
-362 -105 108 0
362 -361 105 108 -106 0
362 -361 -105 -108 -106 0
364 361 -105 0
364 -361 105 0
-364 361 105 0
-364 -361 -105 0
363 108 -106 0
363 -108 106 0
-363 108 106 0
-363 -108 -106 0
-365 364 0
-365 104 0
-365 103 -106 0
-365 -103 106 0
365 -364 103 106 -104 0
365 -364 -103 -106 -104 0
367 364 -103 0
367 -364 103 0
-367 364 103 0
-367 -364 -103 0
366 106 -104 0
366 -106 104 0
-366 106 104 0
-366 -106 -104 0
-368 367 0
-368 102 0
-368 101 -104 0
-368 -101 104 0
368 -367 101 104 -102 0
368 -367 -101 -104 -102 0
370 367 -101 0
370 -367 101 0
-370 367 101 0
-370 -367 -101 0
369 104 -102 0
369 -104 102 0
-369 104 102 0
-369 -104 -102 0
-371 370 0
-371 100 0
-371 99 -102 0
-371 -99 102 0
371 -370 99 102 -100 0
371 -370 -99 -102 -100 0
373 370 -99 0
373 -370 99 0
-373 370 99 0
-373 -370 -99 0
372 102 -100 0
372 -102 100 0
-372 102 100 0
-372 -102 -100 0
-374 373 0
-374 98 0
-374 97 -100 0
-374 -97 100 0
374 -373 97 100 -98 0
374 -373 -97 -100 -98 0
376 373 -97 0
376 -373 97 0
-376 373 97 0
-376 -373 -97 0
375 100 -98 0
375 -100 98 0
-375 100 98 0
-375 -100 -98 0
-377 376 0
-377 96 0
-377 95 -98 0
-377 -95 98 0
377 -376 95 98 -96 0
377 -376 -95 -98 -96 0
379 376 -95 0
379 -376 95 0
-379 376 95 0
-379 -376 -95 0
378 98 -96 0
378 -98 96 0
-378 98 96 0
-378 -98 -96 0
-380 379 0
-380 94 0
-380 93 -96 0
-380 -93 96 0
380 -379 93 96 -94 0
380 -379 -93 -96 -94 0
382 379 -93 0
382 -379 93 0
-382 379 93 0
-382 -379 -93 0
381 96 -94 0
381 -96 94 0
-381 96 94 0
-381 -96 -94 0
-383 382 0
-383 92 0
-383 91 -94 0
-383 -91 94 0
383 -382 91 94 -92 0
383 -382 -91 -94 -92 0
385 382 -91 0
385 -382 91 0
-385 382 91 0
-385 -382 -91 0
384 94 -92 0
384 -94 92 0
-384 94 92 0
-384 -94 -92 0
-386 385 0
-386 90 0
-386 89 -92 0
-386 -89 92 0
386 -385 89 92 -90 0
386 -385 -89 -92 -90 0
388 385 -89 0
388 -385 89 0
-388 385 89 0
-388 -385 -89 0
387 92 -90 0
387 -92 90 0
-387 92 90 0
-387 -92 -90 0
-389 388 0
-389 88 0
-389 87 -90 0
-389 -87 90 0
389 -388 87 90 -88 0
389 -388 -87 -90 -88 0
391 388 -87 0
391 -388 87 0
-391 388 87 0
-391 -388 -87 0
390 90 -88 0
390 -90 88 0
-390 90 88 0
-390 -90 -88 0
-392 391 0
-392 86 0
-392 85 -88 0
-392 -85 88 0
392 -391 85 88 -86 0
392 -391 -85 -88 -86 0
394 391 -85 0
394 -391 85 0
-394 391 85 0
-394 -391 -85 0
393 88 -86 0
393 -88 86 0
-393 88 86 0
-393 -88 -86 0
-395 394 0
-395 84 0
-395 83 -86 0
-395 -83 86 0
395 -394 83 86 -84 0
395 -394 -83 -86 -84 0
397 394 -83 0
397 -394 83 0
-397 394 83 0
-397 -394 -83 0
396 86 -84 0
396 -86 84 0
-396 86 84 0
-396 -86 -84 0
-398 397 0
-398 82 0
-398 81 -84 0
-398 -81 84 0
398 -397 81 84 -82 0
398 -397 -81 -84 -82 0
400 397 -81 0
400 -397 81 0
-400 397 81 0
-400 -397 -81 0
399 84 -82 0
399 -84 82 0
-399 84 82 0
-399 -84 -82 0
-401 400 0
-401 80 0
-401 79 -82 0
-401 -79 82 0
401 -400 79 82 -80 0
401 -400 -79 -82 -80 0
403 400 -79 0
403 -400 79 0
-403 400 79 0
-403 -400 -79 0
402 82 -80 0
402 -82 80 0
-402 82 80 0
-402 -82 -80 0
-404 403 0
-404 78 0
-404 77 -80 0
-404 -77 80 0
404 -403 77 80 -78 0
404 -403 -77 -80 -78 0
406 403 -77 0
406 -403 77 0
-406 403 77 0
-406 -403 -77 0
405 80 -78 0
405 -80 78 0
-405 80 78 0
-405 -80 -78 0
-407 406 0
-407 76 0
-407 75 -78 0
-407 -75 78 0
407 -406 75 78 -76 0
407 -406 -75 -78 -76 0
409 406 -75 0
409 -406 75 0
-409 406 75 0
-409 -406 -75 0
408 78 -76 0
408 -78 76 0
-408 78 76 0
-408 -78 -76 0
-410 409 0
-410 74 0
-410 73 -76 0
-410 -73 76 0
410 -409 73 76 -74 0
410 -409 -73 -76 -74 0
412 409 -73 0
412 -409 73 0
-412 409 73 0
-412 -409 -73 0
411 76 -74 0
411 -76 74 0
-411 76 74 0
-411 -76 -74 0
-413 412 0
-413 72 0
-413 71 -74 0
-413 -71 74 0
413 -412 71 74 -72 0
413 -412 -71 -74 -72 0
415 412 -71 0
415 -412 71 0
-415 412 71 0
-415 -412 -71 0
414 74 -72 0
414 -74 72 0
-414 74 72 0
-414 -74 -72 0
-416 415 0
-416 70 0
-416 69 -72 0
-416 -69 72 0
416 -415 69 72 -70 0
416 -415 -69 -72 -70 0
418 415 -69 0
418 -415 69 0
-418 415 69 0
-418 -415 -69 0
417 72 -70 0
417 -72 70 0
-417 72 70 0
-417 -72 -70 0
-419 418 0
-419 68 0
-419 67 -70 0
-419 -67 70 0
419 -418 67 70 -68 0
419 -418 -67 -70 -68 0
421 418 -67 0
421 -418 67 0
-421 418 67 0
-421 -418 -67 0
420 70 -68 0
420 -70 68 0
-420 70 68 0
-420 -70 -68 0
-422 421 0
-422 66 0
-422 65 -68 0
-422 -65 68 0
422 -421 65 68 -66 0
422 -421 -65 -68 -66 0
424 421 -65 0
424 -421 65 0
-424 421 65 0
-424 -421 -65 0
423 68 -66 0
423 -68 66 0
-423 68 66 0
-423 -68 -66 0
-425 424 0
-425 64 0
-425 63 -66 0
-425 -63 66 0
425 -424 63 66 -64 0
425 -424 -63 -66 -64 0
427 424 -63 0
427 -424 63 0
-427 424 63 0
-427 -424 -63 0
426 66 -64 0
426 -66 64 0
-426 66 64 0
-426 -66 -64 0
-428 427 0
-428 62 0
-428 61 -64 0
-428 -61 64 0
428 -427 61 64 -62 0
428 -427 -61 -64 -62 0
430 427 -61 0
430 -427 61 0
-430 427 61 0
-430 -427 -61 0
429 64 -62 0
429 -64 62 0
-429 64 62 0
-429 -64 -62 0
-431 430 0
-431 60 0
-431 59 -62 0
-431 -59 62 0
431 -430 59 62 -60 0
431 -430 -59 -62 -60 0
433 430 -59 0
433 -430 59 0
-433 430 59 0
-433 -430 -59 0
432 62 -60 0
432 -62 60 0
-432 62 60 0
-432 -62 -60 0
-434 433 0
-434 58 0
-434 57 -60 0
-434 -57 60 0
434 -433 57 60 -58 0
434 -433 -57 -60 -58 0
436 433 -57 0
436 -433 57 0
-436 433 57 0
-436 -433 -57 0
435 60 -58 0
435 -60 58 0
-435 60 58 0
-435 -60 -58 0
-437 436 0
-437 56 0
-437 55 -58 0
-437 -55 58 0
437 -436 55 58 -56 0
437 -436 -55 -58 -56 0
439 436 -55 0
439 -436 55 0
-439 436 55 0
-439 -436 -55 0
438 58 -56 0
438 -58 56 0
-438 58 56 0
-438 -58 -56 0
-440 439 0
-440 54 0
-440 53 -56 0
-440 -53 56 0
440 -439 53 56 -54 0
440 -439 -53 -56 -54 0
442 439 -53 0
442 -439 53 0
-442 439 53 0
-442 -439 -53 0
441 56 -54 0
441 -56 54 0
-441 56 54 0
-441 -56 -54 0
-443 442 0
-443 52 0
-443 51 -54 0
-443 -51 54 0
443 -442 51 54 -52 0
443 -442 -51 -54 -52 0
445 442 -51 0
445 -442 51 0
-445 442 51 0
-445 -442 -51 0
444 54 -52 0
444 -54 52 0
-444 54 52 0
-444 -54 -52 0
-446 445 0
-446 50 0
-446 49 -52 0
-446 -49 52 0
446 -445 49 52 -50 0
446 -445 -49 -52 -50 0
448 445 -49 0
448 -445 49 0
-448 445 49 0
-448 -445 -49 0
447 52 -50 0
447 -52 50 0
-447 52 50 0
-447 -52 -50 0
-449 448 0
-449 48 0
-449 47 -50 0
-449 -47 50 0
449 -448 47 50 -48 0
449 -448 -47 -50 -48 0
451 448 -47 0
451 -448 47 0
-451 448 47 0
-451 -448 -47 0
450 50 -48 0
450 -50 48 0
-450 50 48 0
-450 -50 -48 0
-452 451 0
-452 46 0
-452 45 -48 0
-452 -45 48 0
452 -451 45 48 -46 0
452 -451 -45 -48 -46 0
454 451 -45 0
454 -451 45 0
-454 451 45 0
-454 -451 -45 0
453 48 -46 0
453 -48 46 0
-453 48 46 0
-453 -48 -46 0
-455 454 0
-455 44 0
-455 43 -46 0
-455 -43 46 0
455 -454 43 46 -44 0
455 -454 -43 -46 -44 0
457 454 -43 0
457 -454 43 0
-457 454 43 0
-457 -454 -43 0
456 46 -44 0
456 -46 44 0
-456 46 44 0
-456 -46 -44 0
-458 457 0
-458 42 0
-458 41 -44 0
-458 -41 44 0
458 -457 41 44 -42 0
458 -457 -41 -44 -42 0
460 457 -41 0
460 -457 41 0
-460 457 41 0
-460 -457 -41 0
459 44 -42 0
459 -44 42 0
-459 44 42 0
-459 -44 -42 0
-461 460 0
-461 40 0
-461 39 -42 0
-461 -39 42 0
461 -460 39 42 -40 0
461 -460 -39 -42 -40 0
463 460 -39 0
463 -460 39 0
-463 460 39 0
-463 -460 -39 0
462 42 -40 0
462 -42 40 0
-462 42 40 0
-462 -42 -40 0
-464 463 0
-464 38 0
-464 37 -40 0
-464 -37 40 0
464 -463 37 40 -38 0
464 -463 -37 -40 -38 0
466 463 -37 0
466 -463 37 0
-466 463 37 0
-466 -463 -37 0
465 40 -38 0
465 -40 38 0
-465 40 38 0
-465 -40 -38 0
-467 466 0
-467 36 0
-467 35 -38 0
-467 -35 38 0
467 -466 35 38 -36 0
467 -466 -35 -38 -36 0
469 466 -35 0
469 -466 35 0
-469 466 35 0
-469 -466 -35 0
468 38 -36 0
468 -38 36 0
-468 38 36 0
-468 -38 -36 0
-470 469 0
-470 34 0
-470 33 -36 0
-470 -33 36 0
470 -469 33 36 -34 0
470 -469 -33 -36 -34 0
472 469 -33 0
472 -469 33 0
-472 469 33 0
-472 -469 -33 0
471 36 -34 0
471 -36 34 0
-471 36 34 0
-471 -36 -34 0
-473 472 0
-473 32 0
-473 31 -34 0
-473 -31 34 0
473 -472 31 34 -32 0
473 -472 -31 -34 -32 0
475 472 -31 0
475 -472 31 0
-475 472 31 0
-475 -472 -31 0
474 34 -32 0
474 -34 32 0
-474 34 32 0
-474 -34 -32 0
-476 475 0
-476 30 0
-476 29 -32 0
-476 -29 32 0
476 -475 29 32 -30 0
476 -475 -29 -32 -30 0
478 475 -29 0
478 -475 29 0
-478 475 29 0
-478 -475 -29 0
477 32 -30 0
477 -32 30 0
-477 32 30 0
-477 -32 -30 0
-479 478 0
-479 28 0
-479 27 -30 0
-479 -27 30 0
479 -478 27 30 -28 0
479 -478 -27 -30 -28 0
481 478 -27 0
481 -478 27 0
-481 478 27 0
-481 -478 -27 0
480 30 -28 0
480 -30 28 0
-480 30 28 0
-480 -30 -28 0
-482 481 0
-482 26 0
-482 25 -28 0
-482 -25 28 0
482 -481 25 28 -26 0
482 -481 -25 -28 -26 0
484 481 -25 0
484 -481 25 0
-484 481 25 0
-484 -481 -25 0
483 28 -26 0
483 -28 26 0
-483 28 26 0
-483 -28 -26 0
-485 484 0
-485 24 0
-485 23 -26 0
-485 -23 26 0
485 -484 23 26 -24 0
485 -484 -23 -26 -24 0
487 484 -23 0
487 -484 23 0
-487 484 23 0
-487 -484 -23 0
486 26 -24 0
486 -26 24 0
-486 26 24 0
-486 -26 -24 0
-488 487 0
-488 22 0
-488 21 -24 0
-488 -21 24 0
488 -487 21 24 -22 0
488 -487 -21 -24 -22 0
490 487 -21 0
490 -487 21 0
-490 487 21 0
-490 -487 -21 0
489 24 -22 0
489 -24 22 0
-489 24 22 0
-489 -24 -22 0
-491 490 0
-491 20 0
-491 19 -22 0
-491 -19 22 0
491 -490 19 22 -20 0
491 -490 -19 -22 -20 0
493 490 -19 0
493 -490 19 0
-493 490 19 0
-493 -490 -19 0
492 22 -20 0
492 -22 20 0
-492 22 20 0
-492 -22 -20 0
-494 493 0
-494 18 0
-494 17 -20 0
-494 -17 20 0
494 -493 17 20 -18 0
494 -493 -17 -20 -18 0
496 493 -17 0
496 -493 17 0
-496 493 17 0
-496 -493 -17 0
495 20 -18 0
495 -20 18 0
-495 20 18 0
-495 -20 -18 0
-497 496 0
-497 16 0
-497 15 -18 0
-497 -15 18 0
497 -496 15 18 -16 0
497 -496 -15 -18 -16 0
499 496 -15 0
499 -496 15 0
-499 496 15 0
-499 -496 -15 0
498 18 -16 0
498 -18 16 0
-498 18 16 0
-498 -18 -16 0
-500 499 0
-500 14 0
-500 13 -16 0
-500 -13 16 0
500 -499 13 16 -14 0
500 -499 -13 -16 -14 0
502 499 -13 0
502 -499 13 0
-502 499 13 0
-502 -499 -13 0
501 16 -14 0
501 -16 14 0
-501 16 14 0
-501 -16 -14 0
-503 502 0
-503 12 0
-503 11 -14 0
-503 -11 14 0
503 -502 11 14 -12 0
503 -502 -11 -14 -12 0
505 502 -11 0
505 -502 11 0
-505 502 11 0
-505 -502 -11 0
504 14 -12 0
504 -14 12 0
-504 14 12 0
-504 -14 -12 0
-506 505 0
-506 10 0
-506 9 -12 0
-506 -9 12 0
506 -505 9 12 -10 0
506 -505 -9 -12 -10 0
508 505 -9 0
508 -505 9 0
-508 505 9 0
-508 -505 -9 0
507 12 -10 0
507 -12 10 0
-507 12 10 0
-507 -12 -10 0
-509 508 0
-509 8 0
-509 7 -10 0
-509 -7 10 0
509 -508 7 10 -8 0
509 -508 -7 -10 -8 0
511 508 -7 0
511 -508 7 0
-511 508 7 0
-511 -508 -7 0
510 10 -8 0
510 -10 8 0
-510 10 8 0
-510 -10 -8 0
-512 511 0
-512 6 0
-512 5 -8 0
-512 -5 8 0
512 -511 5 8 -6 0
512 -511 -5 -8 -6 0
514 511 -5 0
514 -511 5 0
-514 511 5 0
-514 -511 -5 0
513 8 -6 0
513 -8 6 0
-513 8 6 0
-513 -8 -6 0
-515 514 0
-515 4 0
-515 3 -6 0
-515 -3 6 0
515 -514 3 6 -4 0
515 -514 -3 -6 -4 0
517 514 -3 0
517 -514 3 0
-517 514 3 0
-517 -514 -3 0
516 6 -4 0
516 -6 4 0
-516 6 4 0
-516 -6 -4 0
-518 517 0
-518 2 0
-518 1 -4 0
-518 -1 4 0
518 -517 1 4 -2 0
518 -517 -1 -4 -2 0
520 517 -1 0
520 -517 1 0
-520 517 1 0
-520 -517 -1 0
519 4 -2 0
519 -4 2 0
-519 4 2 0
-519 -4 -2 0
-520 0
-517 0
-519 0
-514 0
-516 0
-511 0
-513 0
-508 0
-510 0
-505 0
-507 0
-502 0
-504 0
-499 0
-501 0
-496 0
-498 0
-493 0
-495 0
-490 0
-492 0
-487 0
-489 0
-484 0
-486 0
-481 0
-483 0
-478 0
-480 0
-475 0
-477 0
-472 0
-474 0
-469 0
-471 0
-466 0
-468 0
-463 0
-465 0
-460 0
-462 0
-457 0
-459 0
-454 0
-456 0
-451 0
-453 0
-448 0
-450 0
-445 0
-447 0
-442 0
-444 0
-439 0
-441 0
-436 0
-438 0
-433 0
-435 0
-430 0
-432 0
-427 0
-429 0
-424 0
-426 0
-421 0
-423 0
-418 0
-420 0
-415 0
-417 0
-412 0
-414 0
-409 0
-411 0
-406 0
-408 0
-403 0
-405 0
-400 0
-402 0
-397 0
-399 0
-394 0
-396 0
-391 0
-393 0
-388 0
-390 0
-385 0
-387 0
-382 0
-384 0
-379 0
-381 0
-376 0
-378 0
-373 0
-375 0
-370 0
-372 0
-367 0
-369 0
-364 0
-366 0
-361 0
-363 0
-358 0
-360 0
-355 0
-357 0
-352 0
-354 0
-349 0
-351 0
-346 0
-348 0
-343 0
-345 0
-340 0
-342 0
-337 0
-339 0
-334 0
-336 0
-331 0
-333 0
-328 0
-330 0
-325 0
-327 0
-322 0
-324 0
-319 0
-321 0
-316 0
-318 0
-313 0
-315 0
-310 0
-312 0
-307 0
-309 0
-304 0
-306 0
-301 0
-303 0
-298 0
-300 0
-295 0
-297 0
-292 0
-294 0
-289 0
-291 0
-286 0
-288 0
-283 0
-285 0
-280 0
-282 0
-277 0
-279 0
-274 0
-276 0
-271 0
-273 0
-268 0
-270 0
-265 0
-267 0
-262 0
-264 0
-259 0
-261 0
-256 0
-258 0
-253 0
-255 0
-250 0
-252 0
-247 0
-249 0
-244 0
-246 0
-241 0
-243 0
-238 0
-240 0
-235 0
-237 0
-232 0
-234 0
-229 0
-231 0
-226 0
-228 0
-223 0
-225 0
-220 0
-222 0
-217 0
-219 0
-210 0
-216 0
